15
0  38  22  55  19  47  33  12  50  28  41  17  36  23  45
21  0  41  16  53  12  39  29  44  18  36  25  47  13  32
34  28  0  50  27  19  42  14  37  21  46  30  12  38  26
17  36  25  0  41  22  33  18  49  27  15  44  12  31  40
39  14  48  20  0  35  19  41  23  50  28  16  37  12  32
24  41  17  38  26  0  45  21  12  36  29  50  15  43  18
31  22  36  17  39  28  0  44  21  32  13  41  24  19  47
15  33  29  12  44  16  27  0  39  25  48  21  31  12  34
46  18  35  27  14  40  19  23  0  37  21  44  12  28  41
20  37  16  43  22  34  29  13  41  0  36  17  48  23  12
33  12  41  25  31  21  14  38  20  29  0  35  22  47  19
18  46  23  12  37  28  32  15  40  21  42  0  31  16  44
29  21  36  17  48  13  40  23  12  44  25  30  0  37  19
22  39  14  31  12  41  18  47  26  15  46  12  35  0  28
40  17  33  44  21  29  47  19  36  12  18  43  21  27  0